# Solution for model Master Problem
# Objective value = 5.4654156058371007e+02
theta[1] 0
theta[2] 0
theta[3] 0
theta[4] 0
theta[5] 0
theta[6] 0
theta[7] 0
theta[8] 0
theta[9] 0
theta[10] 0
theta[11] 0
theta[12] 0
theta[13] 0
theta[14] 0
theta[15] 0
theta[16] 0
theta[17] 0
theta[18] 0
theta[19] 0
theta[20] 0
theta[21] 0
theta[22] 0
theta[23] 0
theta[24] 0
theta[25] 0
theta[26] 3.1983805668016191e-01
theta[27] 0
theta[28] 0
theta[29] 6.6801619433198378e-01
theta[30] 0
theta[31] 0
theta[32] 4.0485829959514084e-03
theta[33] 0
theta[34] 5.4655870445344135e-01
theta[35] 0
theta[36] 3.2793522267206482e-01
theta[37] 3.2793522267206482e-01
theta[38] 0
theta[39] 0
theta[40] 1.2145748987854199e-02
theta[41] 0
theta[42] 2.3886639676113325e-01
theta[43] 3.2793522267206482e-01
theta[44] 0
theta[45] 0
theta[46] 0
theta[47] 0
theta[48] 0
theta[49] 1.2550607287449370e-01
theta[50] 3.3603238866396723e-01
theta[51] 0
theta[52] 0
theta[53] 4.0485829959514084e-03
theta[54] 0
theta[55] 0
theta[56] 0
theta[57] 3.6842105263157843e-01
theta[58] 4.8582995951416463e-02
theta[59] 0
theta[60] 3.4412955465587036e-01
theta[61] 2.4696356275303616e-01
theta[62] 3.3198380566801616e-01
theta[63] 2.0242914979757112e-01
theta[64] 1.2145748987854231e-01
theta[65] 0
theta[66] 3.1983805668016241e-01
theta[67] 8.5020242914980226e-02
theta[68] 1.6194331983805543e-02
theta[69] 1.6194331983805543e-02
theta[70] 1.2145748987855698e-02
